c SSAT file for PBN expProb/benchmark/C1355-8h written by probABC
p cnf 771 2181
e 1 0
e 2 0
e 3 0
e 4 0
e 5 0
e 6 0
e 7 0
e 8 0
e 9 0
e 10 0
e 11 0
e 12 0
e 13 0
e 14 0
e 15 0
e 16 0
e 17 0
e 18 0
e 19 0
e 20 0
e 21 0
e 22 0
e 23 0
e 24 0
e 25 0
e 26 0
e 27 0
e 28 0
e 29 0
e 30 0
e 31 0
e 32 0
e 33 0
e 34 0
e 35 0
e 36 0
e 37 0
e 38 0
e 39 0
e 40 0
e 41 0
r 0.125000 42 0
r 0.125000 43 0
r 0.125000 44 0
e 46 0
e 47 0
e 48 0
e 49 0
e 50 0
e 51 0
e 52 0
e 53 0
e 54 0
e 55 0
e 56 0
e 57 0
e 58 0
e 59 0
e 60 0
e 61 0
e 62 0
e 63 0
e 64 0
e 65 0
e 66 0
e 67 0
e 68 0
e 69 0
e 70 0
e 71 0
e 72 0
e 73 0
e 74 0
e 75 0
e 76 0
e 77 0
e 78 0
e 79 0
e 80 0
e 81 0
e 82 0
e 83 0
e 84 0
e 85 0
e 86 0
e 87 0
e 88 0
e 89 0
e 90 0
e 91 0
e 92 0
e 93 0
e 94 0
e 95 0
e 96 0
e 97 0
e 98 0
e 99 0
e 100 0
e 101 0
e 102 0
e 103 0
e 104 0
e 105 0
e 106 0
e 107 0
e 108 0
e 109 0
e 110 0
e 111 0
e 112 0
e 113 0
e 114 0
e 115 0
e 116 0
e 117 0
e 118 0
e 119 0
e 120 0
e 121 0
e 122 0
e 123 0
e 124 0
e 125 0
e 126 0
e 127 0
e 128 0
e 129 0
e 130 0
e 131 0
e 132 0
e 133 0
e 134 0
e 135 0
e 136 0
e 137 0
e 138 0
e 139 0
e 140 0
e 141 0
e 142 0
e 143 0
e 144 0
e 145 0
e 146 0
e 147 0
e 148 0
e 149 0
e 150 0
e 151 0
e 152 0
e 153 0
e 154 0
e 155 0
e 156 0
e 157 0
e 158 0
e 159 0
e 160 0
e 161 0
e 162 0
e 163 0
e 164 0
e 165 0
e 166 0
e 167 0
e 168 0
e 169 0
e 170 0
e 171 0
e 172 0
e 173 0
e 174 0
e 175 0
e 176 0
e 177 0
e 178 0
e 179 0
e 180 0
e 181 0
e 182 0
e 183 0
e 184 0
e 185 0
e 186 0
e 187 0
e 188 0
e 189 0
e 190 0
e 191 0
e 192 0
e 193 0
e 194 0
e 195 0
e 196 0
e 197 0
e 198 0
e 199 0
e 200 0
e 201 0
e 202 0
e 203 0
e 204 0
e 205 0
e 206 0
e 207 0
e 208 0
e 209 0
e 210 0
e 211 0
e 212 0
e 213 0
e 214 0
e 215 0
e 216 0
e 217 0
e 218 0
e 219 0
e 220 0
e 221 0
e 222 0
e 223 0
e 224 0
e 225 0
e 226 0
e 227 0
e 228 0
e 229 0
e 230 0
e 231 0
e 232 0
e 233 0
e 234 0
e 235 0
e 236 0
e 237 0
e 238 0
e 239 0
e 240 0
e 241 0
e 242 0
e 243 0
e 244 0
e 245 0
e 246 0
e 247 0
e 248 0
e 249 0
e 250 0
e 251 0
e 252 0
e 253 0
e 254 0
e 255 0
e 256 0
e 257 0
e 258 0
e 259 0
e 260 0
e 261 0
e 262 0
e 263 0
e 264 0
e 265 0
e 266 0
e 267 0
e 268 0
e 269 0
e 270 0
e 271 0
e 272 0
e 273 0
e 274 0
e 275 0
e 276 0
e 277 0
e 278 0
e 279 0
e 280 0
e 281 0
e 282 0
e 283 0
e 284 0
e 285 0
e 286 0
e 287 0
e 288 0
e 289 0
e 290 0
e 291 0
e 292 0
e 293 0
e 294 0
e 295 0
e 296 0
e 297 0
e 298 0
e 299 0
e 300 0
e 301 0
e 302 0
e 303 0
e 304 0
e 305 0
e 306 0
e 307 0
e 308 0
e 309 0
e 310 0
e 311 0
e 312 0
e 313 0
e 314 0
e 315 0
e 316 0
e 317 0
e 318 0
e 319 0
e 320 0
e 321 0
e 322 0
e 323 0
e 324 0
e 325 0
e 326 0
e 327 0
e 328 0
e 329 0
e 330 0
e 331 0
e 332 0
e 333 0
e 334 0
e 335 0
e 336 0
e 337 0
e 338 0
e 339 0
e 340 0
e 341 0
e 342 0
e 343 0
e 344 0
e 345 0
e 346 0
e 347 0
e 348 0
e 349 0
e 350 0
e 351 0
e 352 0
e 353 0
e 354 0
e 355 0
e 356 0
e 357 0
e 358 0
e 359 0
e 360 0
e 361 0
e 362 0
e 363 0
e 364 0
e 365 0
e 366 0
e 367 0
e 368 0
e 369 0
e 370 0
e 371 0
e 372 0
e 373 0
e 374 0
e 375 0
e 376 0
e 377 0
e 378 0
e 379 0
e 380 0
e 381 0
e 382 0
e 383 0
e 384 0
e 385 0
e 386 0
e 387 0
e 388 0
e 389 0
e 390 0
e 391 0
e 392 0
e 393 0
e 394 0
e 395 0
e 396 0
e 397 0
e 398 0
e 399 0
e 400 0
e 401 0
e 402 0
e 403 0
e 404 0
e 405 0
e 406 0
e 407 0
e 408 0
e 409 0
e 410 0
e 411 0
e 412 0
e 413 0
e 414 0
e 415 0
e 416 0
e 417 0
e 418 0
e 419 0
e 420 0
e 421 0
e 422 0
e 423 0
e 424 0
e 425 0
e 426 0
e 427 0
e 428 0
e 429 0
e 430 0
e 431 0
e 432 0
e 433 0
e 434 0
e 435 0
e 436 0
e 437 0
e 438 0
e 439 0
e 440 0
e 441 0
e 442 0
e 443 0
e 444 0
e 445 0
e 446 0
e 447 0
e 448 0
e 449 0
e 450 0
e 451 0
e 452 0
e 453 0
e 454 0
e 455 0
e 456 0
e 457 0
e 458 0
e 459 0
e 460 0
e 461 0
e 462 0
e 463 0
e 464 0
e 465 0
e 466 0
e 467 0
e 468 0
e 469 0
e 470 0
e 471 0
e 472 0
e 473 0
e 474 0
e 475 0
e 476 0
e 477 0
e 478 0
e 479 0
e 480 0
e 481 0
e 482 0
e 483 0
e 484 0
e 485 0
e 486 0
e 487 0
e 488 0
e 489 0
e 490 0
e 491 0
e 492 0
e 493 0
e 494 0
e 495 0
e 496 0
e 497 0
e 498 0
e 499 0
e 500 0
e 501 0
e 502 0
e 503 0
e 504 0
e 505 0
e 506 0
e 507 0
e 508 0
e 509 0
e 510 0
e 511 0
e 512 0
e 513 0
e 514 0
e 515 0
e 516 0
e 517 0
e 518 0
e 519 0
e 520 0
e 521 0
e 522 0
e 523 0
e 524 0
e 525 0
e 526 0
e 527 0
e 528 0
e 529 0
e 530 0
e 531 0
e 532 0
e 533 0
e 534 0
e 535 0
e 536 0
e 537 0
e 538 0
e 539 0
e 540 0
e 541 0
e 542 0
e 543 0
e 544 0
e 545 0
e 546 0
e 547 0
e 548 0
e 549 0
e 550 0
e 551 0
e 552 0
e 553 0
e 554 0
e 555 0
e 556 0
e 557 0
e 558 0
e 559 0
e 560 0
e 561 0
e 562 0
e 563 0
e 564 0
e 565 0
e 566 0
e 567 0
e 568 0
e 569 0
e 570 0
e 571 0
e 572 0
e 573 0
e 574 0
e 575 0
e 576 0
e 577 0
e 578 0
e 579 0
e 580 0
e 581 0
e 582 0
e 583 0
e 584 0
e 585 0
e 586 0
e 587 0
e 588 0
e 589 0
e 590 0
e 591 0
e 592 0
e 593 0
e 594 0
e 595 0
e 596 0
e 597 0
e 598 0
e 599 0
e 600 0
e 601 0
e 602 0
e 603 0
e 604 0
e 605 0
e 606 0
e 607 0
e 608 0
e 609 0
e 610 0
e 611 0
e 612 0
e 613 0
e 614 0
e 615 0
e 616 0
e 617 0
e 618 0
e 619 0
e 620 0
e 621 0
e 622 0
e 623 0
e 624 0
e 625 0
e 626 0
e 627 0
e 628 0
e 629 0
e 630 0
e 631 0
e 632 0
e 633 0
e 634 0
e 635 0
e 636 0
e 637 0
e 638 0
e 639 0
e 640 0
e 641 0
e 642 0
e 643 0
e 644 0
e 645 0
e 646 0
e 647 0
e 648 0
e 649 0
e 650 0
e 651 0
e 652 0
e 653 0
e 654 0
e 655 0
e 656 0
e 657 0
e 658 0
e 659 0
e 660 0
e 661 0
e 662 0
e 663 0
e 664 0
e 665 0
e 666 0
e 667 0
e 668 0
e 669 0
e 670 0
e 671 0
e 672 0
e 673 0
e 674 0
e 675 0
e 676 0
e 677 0
e 678 0
e 679 0
e 680 0
e 681 0
e 682 0
e 683 0
e 684 0
e 685 0
e 686 0
e 687 0
e 688 0
e 689 0
e 690 0
e 691 0
e 692 0
e 693 0
e 694 0
e 695 0
e 696 0
e 697 0
e 698 0
e 699 0
e 700 0
e 701 0
e 702 0
e 703 0
e 704 0
e 705 0
e 706 0
e 707 0
e 708 0
e 709 0
e 710 0
e 711 0
e 712 0
e 713 0
e 714 0
e 715 0
e 716 0
e 717 0
e 718 0
e 719 0
e 720 0
e 721 0
e 722 0
e 723 0
e 724 0
e 725 0
e 726 0
e 727 0
e 728 0
e 729 0
e 730 0
e 731 0
e 732 0
e 733 0
e 734 0
e 735 0
e 736 0
e 737 0
e 738 0
e 739 0
e 740 0
e 741 0
e 742 0
e 743 0
e 744 0
e 745 0
e 746 0
e 747 0
e 748 0
e 749 0
e 750 0
e 751 0
e 752 0
e 753 0
e 754 0
e 755 0
e 756 0
e 757 0
e 758 0
e 759 0
e 760 0
e 761 0
e 762 0
e 763 0
e 764 0
e 765 0
e 766 0
e 767 0
e 768 0
e 769 0
e 770 0
e 771 0
e 45 0
46 -2 -6 0
-46 2 0
-46 6 0
47 -2 46 0
-47 2 0
-47 -46 0
48 -6 46 0
-48 6 0
-48 -46 0
49 47 48 0
-49 -47 0
-49 -48 0
50 -11 -15 0
-50 11 0
-50 15 0
51 -11 50 0
-51 11 0
-51 -50 0
52 -15 50 0
-52 15 0
-52 -50 0
53 51 52 0
-53 -51 0
-53 -52 0
54 49 53 0
-54 -49 0
-54 -53 0
55 49 54 0
-55 -49 0
-55 -54 0
56 53 54 0
-56 -53 0
-56 -54 0
57 55 56 0
-57 -55 0
-57 -56 0
58 -24 -29 0
-58 24 0
-58 29 0
59 -16 -39 0
-59 16 0
-59 39 0
60 -16 59 0
-60 16 0
-60 -59 0
61 -39 59 0
-61 39 0
-61 -59 0
62 60 61 0
-62 -60 0
-62 -61 0
63 -9 -25 0
-63 9 0
-63 25 0
64 -9 63 0
-64 9 0
-64 -63 0
65 -25 63 0
-65 25 0
-65 -63 0
66 64 65 0
-66 -64 0
-66 -65 0
67 62 66 0
-67 -62 0
-67 -66 0
68 62 67 0
-68 -62 0
-68 -67 0
69 66 67 0
-69 -66 0
-69 -67 0
70 68 69 0
-70 -68 0
-70 -69 0
71 -30 -31 0
-71 30 0
-71 31 0
72 -30 71 0
-72 30 0
-72 -71 0
73 -31 71 0
-73 31 0
-73 -71 0
74 72 73 0
-74 -72 0
-74 -73 0
75 -32 -33 0
-75 32 0
-75 33 0
76 -32 75 0
-76 32 0
-76 -75 0
77 -33 75 0
-77 33 0
-77 -75 0
78 76 77 0
-78 -76 0
-78 -77 0
79 74 78 0
-79 -74 0
-79 -78 0
80 74 79 0
-80 -74 0
-80 -79 0
81 78 79 0
-81 -78 0
-81 -79 0
82 80 81 0
-82 -80 0
-82 -81 0
83 70 82 0
-83 -70 0
-83 -82 0
84 70 83 0
-84 -70 0
-84 -83 0
85 82 83 0
-85 -82 0
-85 -83 0
86 84 85 0
-86 -84 0
-86 -85 0
87 -58 86 0
-87 58 0
-87 -86 0
88 -58 87 0
-88 58 0
-88 -87 0
89 86 87 0
-89 -86 0
-89 -87 0
90 88 89 0
-90 -88 0
-90 -89 0
91 57 90 0
-91 -57 0
-91 -90 0
92 57 91 0
-92 -57 0
-92 -91 0
93 90 91 0
-93 -90 0
-93 -91 0
94 92 93 0
-94 -92 0
-94 -93 0
95 -25 -33 0
-95 25 0
-95 33 0
96 -25 95 0
-96 25 0
-96 -95 0
97 -33 95 0
-97 33 0
-97 -95 0
98 96 97 0
-98 -96 0
-98 -97 0
99 -1 -37 0
-99 1 0
-99 37 0
100 -37 99 0
-100 37 0
-100 -99 0
101 -1 99 0
-101 1 0
-101 -99 0
102 100 101 0
-102 -100 0
-102 -101 0
103 98 102 0
-103 -98 0
-103 -102 0
104 98 103 0
-104 -98 0
-104 -103 0
105 102 103 0
-105 -102 0
-105 -103 0
106 104 105 0
-106 -104 0
-106 -105 0
107 -23 -29 0
-107 23 0
-107 29 0
108 -6 -7 0
-108 6 0
-108 7 0
109 -6 108 0
-109 6 0
-109 -108 0
110 -7 108 0
-110 7 0
-110 -108 0
111 109 110 0
-111 -109 0
-111 -110 0
112 -8 -10 0
-112 8 0
-112 10 0
113 -8 112 0
-113 8 0
-113 -112 0
114 -10 112 0
-114 10 0
-114 -112 0
115 113 114 0
-115 -113 0
-115 -114 0
116 111 115 0
-116 -111 0
-116 -115 0
117 111 116 0
-117 -111 0
-117 -116 0
118 115 116 0
-118 -115 0
-118 -116 0
119 117 118 0
-119 -117 0
-119 -118 0
120 -15 -17 0
-120 15 0
-120 17 0
121 -15 120 0
-121 15 0
-121 -120 0
122 -17 120 0
-122 17 0
-122 -120 0
123 121 122 0
-123 -121 0
-123 -122 0
124 -18 -19 0
-124 18 0
-124 19 0
125 -18 124 0
-125 18 0
-125 -124 0
126 -19 124 0
-126 19 0
-126 -124 0
127 125 126 0
-127 -125 0
-127 -126 0
128 123 127 0
-128 -123 0
-128 -127 0
129 123 128 0
-129 -123 0
-129 -128 0
130 127 128 0
-130 -127 0
-130 -128 0
131 129 130 0
-131 -129 0
-131 -130 0
132 119 131 0
-132 -119 0
-132 -131 0
133 119 132 0
-133 -119 0
-133 -132 0
134 131 132 0
-134 -131 0
-134 -132 0
135 133 134 0
-135 -133 0
-135 -134 0
136 -107 135 0
-136 107 0
-136 -135 0
137 -107 136 0
-137 107 0
-137 -136 0
138 135 136 0
-138 -135 0
-138 -136 0
139 137 138 0
-139 -137 0
-139 -138 0
140 106 139 0
-140 -106 0
-140 -139 0
141 106 140 0
-141 -106 0
-141 -140 0
142 139 140 0
-142 -139 0
-142 -140 0
143 141 142 0
-143 -141 0
-143 -142 0
144 -9 -32 0
-144 9 0
-144 32 0
145 -9 144 0
-145 9 0
-145 -144 0
146 -32 144 0
-146 32 0
-146 -144 0
147 145 146 0
-147 -145 0
-147 -146 0
148 -36 -41 0
-148 36 0
-148 41 0
149 -36 148 0
-149 36 0
-149 -148 0
150 -41 148 0
-150 41 0
-150 -148 0
151 149 150 0
-151 -149 0
-151 -150 0
152 147 151 0
-152 -147 0
-152 -151 0
153 147 152 0
-153 -147 0
-153 -152 0
154 151 152 0
-154 -151 0
-154 -152 0
155 153 154 0
-155 -153 0
-155 -154 0
156 -22 -29 0
-156 22 0
-156 29 0
157 -2 -3 0
-157 2 0
-157 3 0
158 -2 157 0
-158 2 0
-158 -157 0
159 -3 157 0
-159 3 0
-159 -157 0
160 158 159 0
-160 -158 0
-160 -159 0
161 -4 -5 0
-161 4 0
-161 5 0
162 -4 161 0
-162 4 0
-162 -161 0
163 -5 161 0
-163 5 0
-163 -161 0
164 162 163 0
-164 -162 0
-164 -163 0
165 160 164 0
-165 -160 0
-165 -164 0
166 160 165 0
-166 -160 0
-166 -165 0
167 164 165 0
-167 -164 0
-167 -165 0
168 166 167 0
-168 -166 0
-168 -167 0
169 -11 -12 0
-169 11 0
-169 12 0
170 -11 169 0
-170 11 0
-170 -169 0
171 -12 169 0
-171 12 0
-171 -169 0
172 170 171 0
-172 -170 0
-172 -171 0
173 -13 -14 0
-173 13 0
-173 14 0
174 -13 173 0
-174 13 0
-174 -173 0
175 -14 173 0
-175 14 0
-175 -173 0
176 174 175 0
-176 -174 0
-176 -175 0
177 172 176 0
-177 -172 0
-177 -176 0
178 172 177 0
-178 -172 0
-178 -177 0
179 176 177 0
-179 -176 0
-179 -177 0
180 178 179 0
-180 -178 0
-180 -179 0
181 168 180 0
-181 -168 0
-181 -180 0
182 168 181 0
-182 -168 0
-182 -181 0
183 180 181 0
-183 -180 0
-183 -181 0
184 182 183 0
-184 -182 0
-184 -183 0
185 -156 184 0
-185 156 0
-185 -184 0
186 -156 185 0
-186 156 0
-186 -185 0
187 184 185 0
-187 -184 0
-187 -185 0
188 186 187 0
-188 -186 0
-188 -187 0
189 155 188 0
-189 -155 0
-189 -188 0
190 155 189 0
-190 -155 0
-190 -189 0
191 188 189 0
-191 -188 0
-191 -189 0
192 190 191 0
-192 -190 0
-192 -191 0
193 -16 -30 0
-193 16 0
-193 30 0
194 -16 193 0
-194 16 0
-194 -193 0
195 -30 193 0
-195 30 0
-195 -193 0
196 194 195 0
-196 -194 0
-196 -195 0
197 -34 -38 0
-197 34 0
-197 38 0
198 -34 197 0
-198 34 0
-198 -197 0
199 -38 197 0
-199 38 0
-199 -197 0
200 198 199 0
-200 -198 0
-200 -199 0
201 196 200 0
-201 -196 0
-201 -200 0
202 196 201 0
-202 -196 0
-202 -201 0
203 200 201 0
-203 -200 0
-203 -201 0
204 202 203 0
-204 -202 0
-204 -203 0
205 -20 -29 0
-205 20 0
-205 29 0
206 119 168 0
-206 -119 0
-206 -168 0
207 168 206 0
-207 -168 0
-207 -206 0
208 119 206 0
-208 -119 0
-208 -206 0
209 207 208 0
-209 -207 0
-209 -208 0
210 -205 209 0
-210 205 0
-210 -209 0
211 -205 210 0
-211 205 0
-211 -210 0
212 209 210 0
-212 -209 0
-212 -210 0
213 211 212 0
-213 -211 0
-213 -212 0
214 204 213 0
-214 -204 0
-214 -213 0
215 204 214 0
-215 -204 0
-215 -214 0
216 213 214 0
-216 -213 0
-216 -214 0
217 215 216 0
-217 -215 0
-217 -216 0
218 -31 -39 0
-218 31 0
-218 39 0
219 -39 218 0
-219 39 0
-219 -218 0
220 -31 218 0
-220 31 0
-220 -218 0
221 219 220 0
-221 -219 0
-221 -220 0
222 -35 -40 0
-222 35 0
-222 40 0
223 -35 222 0
-223 35 0
-223 -222 0
224 -40 222 0
-224 40 0
-224 -222 0
225 223 224 0
-225 -223 0
-225 -224 0
226 221 225 0
-226 -221 0
-226 -225 0
227 221 226 0
-227 -221 0
-227 -226 0
228 225 226 0
-228 -225 0
-228 -226 0
229 227 228 0
-229 -227 0
-229 -228 0
230 -21 -29 0
-230 21 0
-230 29 0
231 131 180 0
-231 -131 0
-231 -180 0
232 180 231 0
-232 -180 0
-232 -231 0
233 131 231 0
-233 -131 0
-233 -231 0
234 232 233 0
-234 -232 0
-234 -233 0
235 -230 234 0
-235 230 0
-235 -234 0
236 -230 235 0
-236 230 0
-236 -235 0
237 234 235 0
-237 -234 0
-237 -235 0
238 236 237 0
-238 -236 0
-238 -237 0
239 229 238 0
-239 -229 0
-239 -238 0
240 229 239 0
-240 -229 0
-240 -239 0
241 238 239 0
-241 -238 0
-241 -239 0
242 240 241 0
-242 -240 0
-242 -241 0
243 217 242 0
-243 -217 0
-243 -242 0
244 192 -243 0
-244 -192 0
-244 243 0
245 143 -244 0
-245 -143 0
-245 244 0
246 -5 -10 0
-246 5 0
-246 10 0
247 -5 246 0
-247 5 0
-247 -246 0
248 -10 246 0
-248 10 0
-248 -246 0
249 247 248 0
-249 -247 0
-249 -248 0
250 -14 -19 0
-250 14 0
-250 19 0
251 -14 250 0
-251 14 0
-251 -250 0
252 -19 250 0
-252 19 0
-252 -250 0
253 251 252 0
-253 -251 0
-253 -252 0
254 249 253 0
-254 -249 0
-254 -253 0
255 249 254 0
-255 -249 0
-255 -254 0
256 253 254 0
-256 -253 0
-256 -254 0
257 255 256 0
-257 -255 0
-257 -256 0
258 -28 -29 0
-258 28 0
-258 29 0
259 -38 -40 0
-259 38 0
-259 40 0
260 -38 259 0
-260 38 0
-260 -259 0
261 -40 259 0
-261 40 0
-261 -259 0
262 260 261 0
-262 -260 0
-262 -261 0
263 -1 -41 0
-263 1 0
-263 41 0
264 -41 263 0
-264 41 0
-264 -263 0
265 -1 263 0
-265 1 0
-265 -263 0
266 264 265 0
-266 -264 0
-266 -265 0
267 262 266 0
-267 -262 0
-267 -266 0
268 262 267 0
-268 -262 0
-268 -267 0
269 266 267 0
-269 -266 0
-269 -267 0
270 268 269 0
-270 -268 0
-270 -269 0
271 82 270 0
-271 -82 0
-271 -270 0
272 82 271 0
-272 -82 0
-272 -271 0
273 270 271 0
-273 -270 0
-273 -271 0
274 272 273 0
-274 -272 0
-274 -273 0
275 -258 274 0
-275 258 0
-275 -274 0
276 -258 275 0
-276 258 0
-276 -275 0
277 274 275 0
-277 -274 0
-277 -275 0
278 276 277 0
-278 -276 0
-278 -277 0
279 257 278 0
-279 -257 0
-279 -278 0
280 257 279 0
-280 -257 0
-280 -279 0
281 278 279 0
-281 -278 0
-281 -279 0
282 280 281 0
-282 -280 0
-282 -281 0
283 -4 -8 0
-283 4 0
-283 8 0
284 -4 283 0
-284 4 0
-284 -283 0
285 -8 283 0
-285 8 0
-285 -283 0
286 284 285 0
-286 -284 0
-286 -285 0
287 -13 -18 0
-287 13 0
-287 18 0
288 -13 287 0
-288 13 0
-288 -287 0
289 -18 287 0
-289 18 0
-289 -287 0
290 288 289 0
-290 -288 0
-290 -289 0
291 286 290 0
-291 -286 0
-291 -290 0
292 286 291 0
-292 -286 0
-292 -291 0
293 290 291 0
-293 -290 0
-293 -291 0
294 292 293 0
-294 -292 0
-294 -293 0
295 -27 -29 0
-295 27 0
-295 29 0
296 -34 -35 0
-296 34 0
-296 35 0
297 -34 296 0
-297 34 0
-297 -296 0
298 -35 296 0
-298 35 0
-298 -296 0
299 297 298 0
-299 -297 0
-299 -298 0
300 -36 -37 0
-300 36 0
-300 37 0
301 -36 300 0
-301 36 0
-301 -300 0
302 -37 300 0
-302 37 0
-302 -300 0
303 301 302 0
-303 -301 0
-303 -302 0
304 299 303 0
-304 -299 0
-304 -303 0
305 299 304 0
-305 -299 0
-305 -304 0
306 303 304 0
-306 -303 0
-306 -304 0
307 305 306 0
-307 -305 0
-307 -306 0
308 70 307 0
-308 -70 0
-308 -307 0
309 70 308 0
-309 -70 0
-309 -308 0
310 307 308 0
-310 -307 0
-310 -308 0
311 309 310 0
-311 -309 0
-311 -310 0
312 -295 311 0
-312 295 0
-312 -311 0
313 -295 312 0
-313 295 0
-313 -312 0
314 311 312 0
-314 -311 0
-314 -312 0
315 313 314 0
-315 -313 0
-315 -314 0
316 294 315 0
-316 -294 0
-316 -315 0
317 294 316 0
-317 -294 0
-317 -316 0
318 315 316 0
-318 -315 0
-318 -316 0
319 317 318 0
-319 -317 0
-319 -318 0
320 -3 -7 0
-320 3 0
-320 7 0
321 -3 320 0
-321 3 0
-321 -320 0
322 -7 320 0
-322 7 0
-322 -320 0
323 321 322 0
-323 -321 0
-323 -322 0
324 -12 -17 0
-324 12 0
-324 17 0
325 -12 324 0
-325 12 0
-325 -324 0
326 -17 324 0
-326 17 0
-326 -324 0
327 325 326 0
-327 -325 0
-327 -326 0
328 323 327 0
-328 -323 0
-328 -327 0
329 323 328 0
-329 -323 0
-329 -328 0
330 327 328 0
-330 -327 0
-330 -328 0
331 329 330 0
-331 -329 0
-331 -330 0
332 -26 -29 0
-332 26 0
-332 29 0
333 270 307 0
-333 -270 0
-333 -307 0
334 307 333 0
-334 -307 0
-334 -333 0
335 270 333 0
-335 -270 0
-335 -333 0
336 334 335 0
-336 -334 0
-336 -335 0
337 -332 336 0
-337 332 0
-337 -336 0
338 -332 337 0
-338 332 0
-338 -337 0
339 336 337 0
-339 -336 0
-339 -337 0
340 338 339 0
-340 -338 0
-340 -339 0
341 331 340 0
-341 -331 0
-341 -340 0
342 331 341 0
-342 -331 0
-342 -341 0
343 340 341 0
-343 -340 0
-343 -341 0
344 342 343 0
-344 -342 0
-344 -343 0
345 94 344 0
-345 -94 0
-345 -344 0
346 319 -345 0
-346 -319 0
-346 345 0
347 282 -346 0
-347 -282 0
-347 346 0
348 -245 -347 0
-348 245 0
-348 347 0
349 94 -348 0
-349 -94 0
-349 348 0
350 -19 -349 0
-350 19 0
-350 349 0
351 -19 350 0
-351 19 0
-351 -350 0
352 -349 350 0
-352 349 0
-352 -350 0
353 351 352 0
-353 -351 0
-353 -352 0
354 -42 268 0
-354 42 0
-354 -268 0
355 42 -268 0
-355 -42 0
-355 268 0
356 354 355 0
-356 -354 0
-356 -355 0
357 269 -356 0
-357 -269 0
-357 356 0
358 82 357 0
-358 -82 0
-358 -357 0
359 82 358 0
-359 -82 0
-359 -358 0
360 357 358 0
-360 -357 0
-360 -358 0
361 359 360 0
-361 -359 0
-361 -360 0
362 -258 361 0
-362 258 0
-362 -361 0
363 -258 362 0
-363 258 0
-363 -362 0
364 361 362 0
-364 -361 0
-364 -362 0
365 363 364 0
-365 -363 0
-365 -364 0
366 257 365 0
-366 -257 0
-366 -365 0
367 257 366 0
-367 -257 0
-367 -366 0
368 365 366 0
-368 -365 0
-368 -366 0
369 367 368 0
-369 -367 0
-369 -368 0
370 307 357 0
-370 -307 0
-370 -357 0
371 307 370 0
-371 -307 0
-371 -370 0
372 357 370 0
-372 -357 0
-372 -370 0
373 371 372 0
-373 -371 0
-373 -372 0
374 -332 373 0
-374 332 0
-374 -373 0
375 -332 374 0
-375 332 0
-375 -374 0
376 373 374 0
-376 -373 0
-376 -374 0
377 -43 376 0
-377 43 0
-377 -376 0
378 43 -376 0
-378 -43 0
-378 376 0
379 377 378 0
-379 -377 0
-379 -378 0
380 375 -379 0
-380 -375 0
-380 379 0
381 331 380 0
-381 -331 0
-381 -380 0
382 331 381 0
-382 -331 0
-382 -381 0
383 380 381 0
-383 -380 0
-383 -381 0
384 382 383 0
-384 -382 0
-384 -383 0
385 94 384 0
-385 -94 0
-385 -384 0
386 319 -385 0
-386 -319 0
-386 385 0
387 369 -386 0
-387 -369 0
-387 386 0
388 -245 -387 0
-388 245 0
-388 387 0
389 94 -388 0
-389 -94 0
-389 388 0
390 -19 -389 0
-390 19 0
-390 389 0
391 -19 390 0
-391 19 0
-391 -390 0
392 -389 390 0
-392 389 0
-392 -390 0
393 391 392 0
-393 -391 0
-393 -392 0
394 353 -393 0
-394 -353 0
-394 393 0
395 -353 393 0
-395 353 0
-395 -393 0
396 394 395 0
-396 -394 0
-396 -395 0
397 -18 -349 0
-397 18 0
-397 349 0
398 -18 397 0
-398 18 0
-398 -397 0
399 -349 397 0
-399 349 0
-399 -397 0
400 398 399 0
-400 -398 0
-400 -399 0
401 -18 -389 0
-401 18 0
-401 389 0
402 -18 401 0
-402 18 0
-402 -401 0
403 -389 401 0
-403 389 0
-403 -401 0
404 402 403 0
-404 -402 0
-404 -403 0
405 400 -404 0
-405 -400 0
-405 404 0
406 -400 404 0
-406 400 0
-406 -404 0
407 405 406 0
-407 -405 0
-407 -406 0
408 -17 -349 0
-408 17 0
-408 349 0
409 -17 408 0
-409 17 0
-409 -408 0
410 -349 408 0
-410 349 0
-410 -408 0
411 409 410 0
-411 -409 0
-411 -410 0
412 -17 -389 0
-412 17 0
-412 389 0
413 -17 412 0
-413 17 0
-413 -412 0
414 -389 412 0
-414 389 0
-414 -412 0
415 413 414 0
-415 -413 0
-415 -414 0
416 411 -415 0
-416 -411 0
-416 415 0
417 -411 415 0
-417 411 0
-417 -415 0
418 416 417 0
-418 -416 0
-418 -417 0
419 -15 -349 0
-419 15 0
-419 349 0
420 -15 419 0
-420 15 0
-420 -419 0
421 -349 419 0
-421 349 0
-421 -419 0
422 420 421 0
-422 -420 0
-422 -421 0
423 -15 -389 0
-423 15 0
-423 389 0
424 -15 423 0
-424 15 0
-424 -423 0
425 -389 423 0
-425 389 0
-425 -423 0
426 424 425 0
-426 -424 0
-426 -425 0
427 422 -426 0
-427 -422 0
-427 426 0
428 -422 426 0
-428 422 0
-428 -426 0
429 427 428 0
-429 -427 0
-429 -428 0
430 -14 -349 0
-430 14 0
-430 349 0
431 -14 430 0
-431 14 0
-431 -430 0
432 -349 430 0
-432 349 0
-432 -430 0
433 431 432 0
-433 -431 0
-433 -432 0
434 -14 -389 0
-434 14 0
-434 389 0
435 -14 434 0
-435 14 0
-435 -434 0
436 -389 434 0
-436 389 0
-436 -434 0
437 435 436 0
-437 -435 0
-437 -436 0
438 433 -437 0
-438 -433 0
-438 437 0
439 -433 437 0
-439 433 0
-439 -437 0
440 438 439 0
-440 -438 0
-440 -439 0
441 -13 -349 0
-441 13 0
-441 349 0
442 -13 441 0
-442 13 0
-442 -441 0
443 -349 441 0
-443 349 0
-443 -441 0
444 442 443 0
-444 -442 0
-444 -443 0
445 -13 -389 0
-445 13 0
-445 389 0
446 -13 445 0
-446 13 0
-446 -445 0
447 -389 445 0
-447 389 0
-447 -445 0
448 446 447 0
-448 -446 0
-448 -447 0
449 444 -448 0
-449 -444 0
-449 448 0
450 -444 448 0
-450 444 0
-450 -448 0
451 449 450 0
-451 -449 0
-451 -450 0
452 -12 -349 0
-452 12 0
-452 349 0
453 -12 452 0
-453 12 0
-453 -452 0
454 -349 452 0
-454 349 0
-454 -452 0
455 453 454 0
-455 -453 0
-455 -454 0
456 -12 -389 0
-456 12 0
-456 389 0
457 -12 456 0
-457 12 0
-457 -456 0
458 -389 456 0
-458 389 0
-458 -456 0
459 457 458 0
-459 -457 0
-459 -458 0
460 455 -459 0
-460 -455 0
-460 459 0
461 -455 459 0
-461 455 0
-461 -459 0
462 460 461 0
-462 -460 0
-462 -461 0
463 -11 -349 0
-463 11 0
-463 349 0
464 -11 463 0
-464 11 0
-464 -463 0
465 -349 463 0
-465 349 0
-465 -463 0
466 464 465 0
-466 -464 0
-466 -465 0
467 -11 -389 0
-467 11 0
-467 389 0
468 -11 467 0
-468 11 0
-468 -467 0
469 -389 467 0
-469 389 0
-469 -467 0
470 468 469 0
-470 -468 0
-470 -469 0
471 466 -470 0
-471 -466 0
-471 470 0
472 -466 470 0
-472 466 0
-472 -470 0
473 471 472 0
-473 -471 0
-473 -472 0
474 -10 -349 0
-474 10 0
-474 349 0
475 -10 474 0
-475 10 0
-475 -474 0
476 -349 474 0
-476 349 0
-476 -474 0
477 475 476 0
-477 -475 0
-477 -476 0
478 -10 -389 0
-478 10 0
-478 389 0
479 -10 478 0
-479 10 0
-479 -478 0
480 -389 478 0
-480 389 0
-480 -478 0
481 479 480 0
-481 -479 0
-481 -480 0
482 477 -481 0
-482 -477 0
-482 481 0
483 -477 481 0
-483 477 0
-483 -481 0
484 482 483 0
-484 -482 0
-484 -483 0
485 -8 -349 0
-485 8 0
-485 349 0
486 -8 485 0
-486 8 0
-486 -485 0
487 -349 485 0
-487 349 0
-487 -485 0
488 486 487 0
-488 -486 0
-488 -487 0
489 -8 -389 0
-489 8 0
-489 389 0
490 -8 489 0
-490 8 0
-490 -489 0
491 -389 489 0
-491 389 0
-491 -489 0
492 490 491 0
-492 -490 0
-492 -491 0
493 488 -492 0
-493 -488 0
-493 492 0
494 -488 492 0
-494 488 0
-494 -492 0
495 493 494 0
-495 -493 0
-495 -494 0
496 -7 -349 0
-496 7 0
-496 349 0
497 -7 496 0
-497 7 0
-497 -496 0
498 -349 496 0
-498 349 0
-498 -496 0
499 497 498 0
-499 -497 0
-499 -498 0
500 -7 -389 0
-500 7 0
-500 389 0
501 -7 500 0
-501 7 0
-501 -500 0
502 -389 500 0
-502 389 0
-502 -500 0
503 501 502 0
-503 -501 0
-503 -502 0
504 499 -503 0
-504 -499 0
-504 503 0
505 -499 503 0
-505 499 0
-505 -503 0
506 504 505 0
-506 -504 0
-506 -505 0
507 -6 -349 0
-507 6 0
-507 349 0
508 -6 507 0
-508 6 0
-508 -507 0
509 -349 507 0
-509 349 0
-509 -507 0
510 508 509 0
-510 -508 0
-510 -509 0
511 -6 -389 0
-511 6 0
-511 389 0
512 -6 511 0
-512 6 0
-512 -511 0
513 -389 511 0
-513 389 0
-513 -511 0
514 512 513 0
-514 -512 0
-514 -513 0
515 510 -514 0
-515 -510 0
-515 514 0
516 -510 514 0
-516 510 0
-516 -514 0
517 515 516 0
-517 -515 0
-517 -516 0
518 -5 -349 0
-518 5 0
-518 349 0
519 -5 518 0
-519 5 0
-519 -518 0
520 -349 518 0
-520 349 0
-520 -518 0
521 519 520 0
-521 -519 0
-521 -520 0
522 -5 -389 0
-522 5 0
-522 389 0
523 -5 522 0
-523 5 0
-523 -522 0
524 -389 522 0
-524 389 0
-524 -522 0
525 523 524 0
-525 -523 0
-525 -524 0
526 521 -525 0
-526 -521 0
-526 525 0
527 -521 525 0
-527 521 0
-527 -525 0
528 526 527 0
-528 -526 0
-528 -527 0
529 -4 -349 0
-529 4 0
-529 349 0
530 -4 529 0
-530 4 0
-530 -529 0
531 -349 529 0
-531 349 0
-531 -529 0
532 530 531 0
-532 -530 0
-532 -531 0
533 -4 -389 0
-533 4 0
-533 389 0
534 -4 533 0
-534 4 0
-534 -533 0
535 -389 533 0
-535 389 0
-535 -533 0
536 534 535 0
-536 -534 0
-536 -535 0
537 532 -536 0
-537 -532 0
-537 536 0
538 -532 536 0
-538 532 0
-538 -536 0
539 537 538 0
-539 -537 0
-539 -538 0
540 -3 -349 0
-540 3 0
-540 349 0
541 -3 540 0
-541 3 0
-541 -540 0
542 -349 540 0
-542 349 0
-542 -540 0
543 541 542 0
-543 -541 0
-543 -542 0
544 -3 -389 0
-544 3 0
-544 389 0
545 -3 544 0
-545 3 0
-545 -544 0
546 -389 544 0
-546 389 0
-546 -544 0
547 545 546 0
-547 -545 0
-547 -546 0
548 543 -547 0
-548 -543 0
-548 547 0
549 -543 547 0
-549 543 0
-549 -547 0
550 548 549 0
-550 -548 0
-550 -549 0
551 -2 -349 0
-551 2 0
-551 349 0
552 -2 551 0
-552 2 0
-552 -551 0
553 -349 551 0
-553 349 0
-553 -551 0
554 552 553 0
-554 -552 0
-554 -553 0
555 -2 -389 0
-555 2 0
-555 389 0
556 -2 555 0
-556 2 0
-556 -555 0
557 -389 555 0
-557 389 0
-557 -555 0
558 556 557 0
-558 -556 0
-558 -557 0
559 554 -558 0
-559 -554 0
-559 558 0
560 -554 558 0
-560 554 0
-560 -558 0
561 559 560 0
-561 -559 0
-561 -560 0
562 -1 -348 0
-562 1 0
-562 348 0
563 -1 562 0
-563 1 0
-563 -562 0
564 -348 562 0
-564 348 0
-564 -562 0
565 563 564 0
-565 -563 0
-565 -564 0
566 -1 -388 0
-566 1 0
-566 388 0
567 -1 566 0
-567 1 0
-567 -566 0
568 -388 566 0
-568 388 0
-568 -566 0
569 567 568 0
-569 -567 0
-569 -568 0
570 565 -569 0
-570 -565 0
-570 569 0
571 -565 569 0
-571 565 0
-571 -569 0
572 570 571 0
-572 -570 0
-572 -571 0
573 -41 -348 0
-573 41 0
-573 348 0
574 -41 573 0
-574 41 0
-574 -573 0
575 -348 573 0
-575 348 0
-575 -573 0
576 574 575 0
-576 -574 0
-576 -575 0
577 -41 -388 0
-577 41 0
-577 388 0
578 -44 577 0
-578 44 0
-578 -577 0
579 44 -577 0
-579 -44 0
-579 577 0
580 578 579 0
-580 -578 0
-580 -579 0
581 -41 -580 0
-581 41 0
-581 580 0
582 -388 -580 0
-582 388 0
-582 580 0
583 581 582 0
-583 -581 0
-583 -582 0
584 576 -583 0
-584 -576 0
-584 583 0
585 -576 583 0
-585 576 0
-585 -583 0
586 584 585 0
-586 -584 0
-586 -585 0
587 -40 -348 0
-587 40 0
-587 348 0
588 -40 587 0
-588 40 0
-588 -587 0
589 -348 587 0
-589 348 0
-589 -587 0
590 588 589 0
-590 -588 0
-590 -589 0
591 -40 -388 0
-591 40 0
-591 388 0
592 -40 591 0
-592 40 0
-592 -591 0
593 -388 591 0
-593 388 0
-593 -591 0
594 592 593 0
-594 -592 0
-594 -593 0
595 590 -594 0
-595 -590 0
-595 594 0
596 -590 594 0
-596 590 0
-596 -594 0
597 595 596 0
-597 -595 0
-597 -596 0
598 -38 -348 0
-598 38 0
-598 348 0
599 -38 598 0
-599 38 0
-599 -598 0
600 -348 598 0
-600 348 0
-600 -598 0
601 599 600 0
-601 -599 0
-601 -600 0
602 -38 -388 0
-602 38 0
-602 388 0
603 -38 602 0
-603 38 0
-603 -602 0
604 -388 602 0
-604 388 0
-604 -602 0
605 603 604 0
-605 -603 0
-605 -604 0
606 601 -605 0
-606 -601 0
-606 605 0
607 -601 605 0
-607 601 0
-607 -605 0
608 606 607 0
-608 -606 0
-608 -607 0
609 -37 -348 0
-609 37 0
-609 348 0
610 -37 609 0
-610 37 0
-610 -609 0
611 -348 609 0
-611 348 0
-611 -609 0
612 610 611 0
-612 -610 0
-612 -611 0
613 -37 -388 0
-613 37 0
-613 388 0
614 -37 613 0
-614 37 0
-614 -613 0
615 -388 613 0
-615 388 0
-615 -613 0
616 614 615 0
-616 -614 0
-616 -615 0
617 612 -616 0
-617 -612 0
-617 616 0
618 -612 616 0
-618 612 0
-618 -616 0
619 617 618 0
-619 -617 0
-619 -618 0
620 -36 -348 0
-620 36 0
-620 348 0
621 -36 620 0
-621 36 0
-621 -620 0
622 -348 620 0
-622 348 0
-622 -620 0
623 621 622 0
-623 -621 0
-623 -622 0
624 -36 -388 0
-624 36 0
-624 388 0
625 -36 624 0
-625 36 0
-625 -624 0
626 -388 624 0
-626 388 0
-626 -624 0
627 625 626 0
-627 -625 0
-627 -626 0
628 623 -627 0
-628 -623 0
-628 627 0
629 -623 627 0
-629 623 0
-629 -627 0
630 628 629 0
-630 -628 0
-630 -629 0
631 -35 -348 0
-631 35 0
-631 348 0
632 -35 631 0
-632 35 0
-632 -631 0
633 -348 631 0
-633 348 0
-633 -631 0
634 632 633 0
-634 -632 0
-634 -633 0
635 -35 -388 0
-635 35 0
-635 388 0
636 -35 635 0
-636 35 0
-636 -635 0
637 -388 635 0
-637 388 0
-637 -635 0
638 636 637 0
-638 -636 0
-638 -637 0
639 634 -638 0
-639 -634 0
-639 638 0
640 -634 638 0
-640 634 0
-640 -638 0
641 639 640 0
-641 -639 0
-641 -640 0
642 -34 -348 0
-642 34 0
-642 348 0
643 -34 642 0
-643 34 0
-643 -642 0
644 -348 642 0
-644 348 0
-644 -642 0
645 643 644 0
-645 -643 0
-645 -644 0
646 -34 -388 0
-646 34 0
-646 388 0
647 -34 646 0
-647 34 0
-647 -646 0
648 -388 646 0
-648 388 0
-648 -646 0
649 647 648 0
-649 -647 0
-649 -648 0
650 645 -649 0
-650 -645 0
-650 649 0
651 -645 649 0
-651 645 0
-651 -649 0
652 650 651 0
-652 -650 0
-652 -651 0
653 -33 -348 0
-653 33 0
-653 348 0
654 -33 653 0
-654 33 0
-654 -653 0
655 -348 653 0
-655 348 0
-655 -653 0
656 654 655 0
-656 -654 0
-656 -655 0
657 -33 -388 0
-657 33 0
-657 388 0
658 -33 657 0
-658 33 0
-658 -657 0
659 -388 657 0
-659 388 0
-659 -657 0
660 658 659 0
-660 -658 0
-660 -659 0
661 656 -660 0
-661 -656 0
-661 660 0
662 -656 660 0
-662 656 0
-662 -660 0
663 661 662 0
-663 -661 0
-663 -662 0
664 -32 -348 0
-664 32 0
-664 348 0
665 -32 664 0
-665 32 0
-665 -664 0
666 -348 664 0
-666 348 0
-666 -664 0
667 665 666 0
-667 -665 0
-667 -666 0
668 -32 -388 0
-668 32 0
-668 388 0
669 -32 668 0
-669 32 0
-669 -668 0
670 -388 668 0
-670 388 0
-670 -668 0
671 669 670 0
-671 -669 0
-671 -670 0
672 667 -671 0
-672 -667 0
-672 671 0
673 -667 671 0
-673 667 0
-673 -671 0
674 672 673 0
-674 -672 0
-674 -673 0
675 -31 -348 0
-675 31 0
-675 348 0
676 -31 675 0
-676 31 0
-676 -675 0
677 -348 675 0
-677 348 0
-677 -675 0
678 676 677 0
-678 -676 0
-678 -677 0
679 -31 -388 0
-679 31 0
-679 388 0
680 -31 679 0
-680 31 0
-680 -679 0
681 -388 679 0
-681 388 0
-681 -679 0
682 680 681 0
-682 -680 0
-682 -681 0
683 678 -682 0
-683 -678 0
-683 682 0
684 -678 682 0
-684 678 0
-684 -682 0
685 683 684 0
-685 -683 0
-685 -684 0
686 -30 -348 0
-686 30 0
-686 348 0
687 -30 686 0
-687 30 0
-687 -686 0
688 -348 686 0
-688 348 0
-688 -686 0
689 687 688 0
-689 -687 0
-689 -688 0
690 -30 -388 0
-690 30 0
-690 388 0
691 -30 690 0
-691 30 0
-691 -690 0
692 -388 690 0
-692 388 0
-692 -690 0
693 691 692 0
-693 -691 0
-693 -692 0
694 689 -693 0
-694 -689 0
-694 693 0
695 -689 693 0
-695 689 0
-695 -693 0
696 694 695 0
-696 -694 0
-696 -695 0
697 -25 -348 0
-697 25 0
-697 348 0
698 -25 697 0
-698 25 0
-698 -697 0
699 -348 697 0
-699 348 0
-699 -697 0
700 698 699 0
-700 -698 0
-700 -699 0
701 -25 -388 0
-701 25 0
-701 388 0
702 -25 701 0
-702 25 0
-702 -701 0
703 -388 701 0
-703 388 0
-703 -701 0
704 702 703 0
-704 -702 0
-704 -703 0
705 700 -704 0
-705 -700 0
-705 704 0
706 -700 704 0
-706 700 0
-706 -704 0
707 705 706 0
-707 -705 0
-707 -706 0
708 -9 -348 0
-708 9 0
-708 348 0
709 -9 708 0
-709 9 0
-709 -708 0
710 -348 708 0
-710 348 0
-710 -708 0
711 709 710 0
-711 -709 0
-711 -710 0
712 -9 -388 0
-712 9 0
-712 388 0
713 -9 712 0
-713 9 0
-713 -712 0
714 -388 712 0
-714 388 0
-714 -712 0
715 713 714 0
-715 -713 0
-715 -714 0
716 711 -715 0
-716 -711 0
-716 715 0
717 -711 715 0
-717 711 0
-717 -715 0
718 716 717 0
-718 -716 0
-718 -717 0
719 -16 -348 0
-719 16 0
-719 348 0
720 -16 719 0
-720 16 0
-720 -719 0
721 -348 719 0
-721 348 0
-721 -719 0
722 720 721 0
-722 -720 0
-722 -721 0
723 -16 -388 0
-723 16 0
-723 388 0
724 -16 723 0
-724 16 0
-724 -723 0
725 -388 723 0
-725 388 0
-725 -723 0
726 724 725 0
-726 -724 0
-726 -725 0
727 722 -726 0
-727 -722 0
-727 726 0
728 -722 726 0
-728 722 0
-728 -726 0
729 727 728 0
-729 -727 0
-729 -728 0
730 -39 -348 0
-730 39 0
-730 348 0
731 -39 730 0
-731 39 0
-731 -730 0
732 -348 730 0
-732 348 0
-732 -730 0
733 731 732 0
-733 -731 0
-733 -732 0
734 -39 -388 0
-734 39 0
-734 388 0
735 -39 734 0
-735 39 0
-735 -734 0
736 -388 734 0
-736 388 0
-736 -734 0
737 735 736 0
-737 -735 0
-737 -736 0
738 733 -737 0
-738 -733 0
-738 737 0
739 -733 737 0
-739 733 0
-739 -737 0
740 738 739 0
-740 -738 0
-740 -739 0
741 -729 -740 0
-741 729 0
-741 740 0
742 -718 -741 0
-742 718 0
-742 741 0
743 -707 -742 0
-743 707 0
-743 742 0
744 -696 -743 0
-744 696 0
-744 743 0
745 -685 -744 0
-745 685 0
-745 744 0
746 -674 -745 0
-746 674 0
-746 745 0
747 -663 -746 0
-747 663 0
-747 746 0
748 -652 -747 0
-748 652 0
-748 747 0
749 -641 -748 0
-749 641 0
-749 748 0
750 -630 -749 0
-750 630 0
-750 749 0
751 -619 -750 0
-751 619 0
-751 750 0
752 -608 -751 0
-752 608 0
-752 751 0
753 -597 -752 0
-753 597 0
-753 752 0
754 -586 -753 0
-754 586 0
-754 753 0
755 -572 -754 0
-755 572 0
-755 754 0
756 -561 -755 0
-756 561 0
-756 755 0
757 -550 -756 0
-757 550 0
-757 756 0
758 -539 -757 0
-758 539 0
-758 757 0
759 -528 -758 0
-759 528 0
-759 758 0
760 -517 -759 0
-760 517 0
-760 759 0
761 -506 -760 0
-761 506 0
-761 760 0
762 -495 -761 0
-762 495 0
-762 761 0
763 -484 -762 0
-763 484 0
-763 762 0
764 -473 -763 0
-764 473 0
-764 763 0
765 -462 -764 0
-765 462 0
-765 764 0
766 -451 -765 0
-766 451 0
-766 765 0
767 -440 -766 0
-767 440 0
-767 766 0
768 -429 -767 0
-768 429 0
-768 767 0
769 -418 -768 0
-769 418 0
-769 768 0
770 -407 -769 0
-770 407 0
-770 769 0
771 -396 -770 0
-771 396 0
-771 770 0
45 771 0
-45 -771 0
45 0
